924269
13 20 31692
20 32 24202
32 5 3290
5 24 63665
24 22 45980
22 4 23621
4 40 28500
40 19 13572
19 16 62440
16 3 71701
3 14 30026
14 17 42391
17 15 45489
15 9 71452
9 6 47658
6 8 34947
8 11 17581
11 35 5412
35 10 6355
10 1 6947
1 21 6578
21 2 11546
2 27 15288
27 18 12606
18 7 20722
7 36 11794
36 29 16895
29 38 745
38 23 7449
23 34 31609
34 12 39715
12 33 3967
33 26 15458
26 37 14546
37 30 941
30 39 6375
39 25 4093
25 31 7859
31 28 12751
28 13 6411
